qbf_easy_train/easy_5524_SAT.qdimacs
p cnf 32 87
a 16 26 3 0
e 1 2 4 5 6 7 8 9 10 11 12 13 14 15 17 18 19 20 21 22 23 24 25 27 28 29 30 31 32 0
1 2 -3 0
-1 -2 -3 0
1 -2 3 0
-1 2 3 0
-4 5 -6 0
4 -5 -6 0
-4 -5 6 0
4 5 6 0
-7 3 0
-7 6 0
-3 -6 7 0
10 8 0
10 9 0
-8 -9 -10 0
5 -4 -11 0
-5 4 -11 0
5 4 11 0
-5 -4 11 0
-10 -11 -12 0
10 11 -12 0
-10 11 12 0
10 -11 12 0
13 12 0
13 -4 0
-12 4 -13 0
14 13 0
14 -4 0
-13 4 -14 0
16 1 0
16 9 0
-1 -9 -16 0
17 -15 0
17 -16 0
15 16 -17 0
18 -4 0
18 -16 0
4 16 -18 0
2 -18 -19 0
-2 18 -19 0
2 18 19 0
-2 -18 19 0
-20 17 0
-20 -19 0
-17 19 20 0
-21 -14 0
-21 -20 0
14 20 21 0
-22 18 0
-22 -16 0
-18 16 22 0
23 13 0
23 11 0
-13 -11 -23 0
-16 -5 -24 0
16 5 -24 0
-16 5 24 0
16 -5 24 0
25 -24 0
25 -10 0
24 10 -25 0
26 23 0
26 25 0
-23 -25 -26 0
27 -22 0
27 -26 0
22 26 -27 0
-29 -11 0
-29 -28 0
11 28 29 0
-30 27 0
-30 -29 0
-27 29 30 0
-31 21 0
-31 -30 0
-21 30 31 0
32 7 0
32 31 0
-7 -31 -32 0
12 -26 -19 -4 32 -21 0
-16 -30 -21 15 0
12 15 1 -5 -20 -14 0
13 24 0
17 -7 -31 -32 0
-14 2 3 1 0
-16 -5 -27 -13 -17 0
-22 -18 11 23 0
32 0
