sat_easy_train/easy_5524_SAT.dimacs
p cnf 111 366
-3 -1 0
-3 2 0
1 -2 3 0
4 5 -6 0
-4 -5 -6 0
4 -5 6 0
-4 5 6 0
-7 -3 0
-7 6 0
3 -6 7 0
-9 -10 -11 0
9 10 -11 0
-9 10 11 0
9 -10 11 0
13 -9 0
13 12 0
9 -12 -13 0
-11 -13 -14 0
11 13 -14 0
-11 13 14 0
11 -13 14 0
8 14 -15 0
-8 -14 -15 0
8 -14 15 0
-8 14 15 0
7 -15 -16 0
-7 15 -16 0
7 15 16 0
-7 -15 16 0
-17 -18 -19 0
17 18 -19 0
-17 18 19 0
17 -18 19 0
-20 -21 -22 0
20 21 -22 0
-20 21 22 0
20 -21 22 0
-24 12 0
-24 18 0
-12 -18 24 0
-27 25 0
-27 26 0
-25 -26 27 0
28 -24 0
28 27 0
24 -27 -28 0
23 -25 -29 0
-23 25 -29 0
23 25 29 0
-23 -25 29 0
-30 -28 0
-30 -29 0
28 29 30 0
-31 23 0
-31 -30 0
-23 30 31 0
-32 -22 0
-32 -31 0
22 31 32 0
33 19 0
33 -32 0
-19 32 -33 0
-34 -16 0
-34 33 0
16 -33 34 0
-10 12 -35 0
10 -12 -35 0
-10 -12 35 0
10 12 35 0
36 -9 0
36 -35 0
9 35 -36 0
-37 36 0
-37 35 0
-36 -35 37 0
-38 37 0
-38 21 0
-37 -21 38 0
-39 -26 0
-39 -38 0
26 38 39 0
40 27 0
40 13 0
-27 -13 -40 0
-41 29 0
-41 -40 0
-29 40 41 0
-42 39 0
-42 -41 0
-39 41 42 0
43 -10 0
43 2 0
10 -2 -43 0
44 43 0
44 25 0
-43 -25 -44 0
25 29 -45 0
-25 -29 -45 0
25 -29 45 0
-25 29 45 0
23 2 -46 0
-23 -2 -46 0
23 -2 46 0
-23 2 46 0
-45 46 -47 0
45 -46 -47 0
-45 -46 47 0
45 46 47 0
-48 -44 0
-48 47 0
44 -47 48 0
49 42 0
49 -48 0
-42 48 -49 0
50 9 0
50 2 0
-9 -2 -50 0
-51 23 0
-51 -50 0
-23 50 51 0
52 20 0
52 -51 0
-20 51 -52 0
-36 1 -53 0
36 -1 -53 0
-36 -1 53 0
36 1 53 0
52 53 -54 0
-52 -53 -54 0
52 -53 54 0
-52 53 54 0
55 4 0
55 23 0
-4 -23 -55 0
56 55 0
56 -1 0
-55 1 -56 0
57 56 0
57 45 0
-56 -45 -57 0
-58 8 0
-58 52 0
-8 -52 58 0
59 -57 0
59 -58 0
57 58 -59 0
-60 50 0
-60 20 0
-50 -20 60 0
61 26 0
61 60 0
-26 -60 -61 0
-62 13 0
-62 -2 0
-13 2 62 0
-63 -4 0
-63 -28 0
4 28 63 0
63 -53 -64 0
-63 53 -64 0
63 53 64 0
-63 -53 64 0
-65 57 0
-65 -64 0
-57 64 65 0
-66 -31 0
-66 -65 0
31 65 66 0
-67 -62 0
-67 -66 0
62 66 67 0
61 -67 -68 0
-61 67 -68 0
61 67 68 0
-61 -67 68 0
69 -59 0
69 68 0
59 -68 -69 0
-70 54 0
-70 69 0
-54 -69 70 0
71 18 0
71 28 0
-18 -28 -71 0
20 40 -72 0
-20 -40 -72 0
20 -40 72 0
-20 40 72 0
73 72 0
73 -25 0
-72 25 -73 0
-74 -71 0
-74 -73 0
71 73 74 0
-70 -74 -75 0
70 74 -75 0
-70 74 75 0
70 -74 75 0
22 -76 0
-22 -76 0
-76 46 -77 0
76 -46 -77 0
-76 -46 77 0
76 46 77 0
78 77 0
78 -3 0
-77 3 -78 0
-12 -10 -79 0
12 10 -79 0
-12 10 79 0
12 -10 79 0
-80 -79 0
-80 -46 0
79 46 80 0
78 80 -81 0
-78 -80 -81 0
78 -80 81 0
-78 80 81 0
82 40 0
82 36 0
-40 -36 -82 0
-83 82 0
-83 72 0
-82 -72 83 0
84 81 0
84 -83 0
-81 83 -84 0
85 -23 0
85 11 0
23 -11 -85 0
-86 24 0
-86 -25 0
-24 25 86 0
-87 85 0
-87 -86 0
-85 86 87 0
84 -87 -88 0
-84 87 -88 0
84 87 88 0
-84 -87 88 0
4 89 -90 0
-4 -89 -90 0
4 -89 90 0
-4 89 90 0
91 24 0
91 -77 0
-24 77 -91 0
-92 -90 0
-92 91 0
90 -91 92 0
88 -92 -93 0
-88 92 -93 0
88 92 93 0
-88 -92 93 0
-75 -93 -94 0
75 93 -94 0
-75 93 94 0
75 -93 94 0
-95 49 0
-95 94 0
-49 -94 95 0
-34 95 -96 0
34 -95 -96 0
-34 -95 96 0
34 95 96 0
-97 58 0
-97 -46 0
-58 46 97 0
-10 8 -98 0
10 -8 -98 0
-10 -8 98 0
10 8 98 0
-11 -89 -99 0
11 89 -99 0
-11 89 99 0
11 -89 99 0
-100 -98 0
-100 -99 0
98 99 100 0
-101 72 0
-101 28 0
-72 -28 101 0
-102 52 0
-102 -101 0
-52 101 102 0
-24 25 -103 0
24 -25 -103 0
-24 -25 103 0
24 25 103 0
-104 -103 0
-104 -10 0
103 10 104 0
102 -104 -105 0
-102 104 -105 0
102 104 105 0
-102 -104 105 0
106 -100 0
106 105 0
100 -105 -106 0
-97 106 -107 0
97 -106 -107 0
-97 -106 107 0
97 106 107 0
-60 -76 -108 0
60 76 -108 0
-60 76 108 0
60 -76 108 0
109 -108 0
109 35 0
108 -35 -109 0
107 -109 -110 0
-107 109 -110 0
107 109 110 0
-107 -109 110 0
-111 96 0
-111 -110 0
-96 110 111 0
28 -96 0
-87 -1 71 -80 32 0
-41 -38 45 -61 0
58 75 -77 66 -81 21 0
-3 19 0
-40 -75 -35 -28 0
54 59 48 -49 -89 17 0
61 -13 -92 64 46 43 0
-14 -88 0
-38 45 100 -60 0
103 106 0
-31 28 8 -65 0
50 76 -7 -66 100 0
93 -72 36 12 0
-105 74 -80 -6 0
-90 -39 71 0
-22 16 -75 -94 55 0
54 -25 -61 0
-103 -108 -89 -73 0
-44 99 0
76 69 59 14 98 -71 0
48 88 -40 16 -18 -38 0
-44 -107 -34 -55 0
-84 55 0
81 -13 80 6 47 52 0
18 -86 0
82 33 -103 49 102 0
-42 35 -92 0
-61 -81 0
94 -16 -13 -22 0
-50 -20 0
-84 -27 63 -28 71 0
48 -100 5 -43 37 72 0
40 24 -99 0
-92 -57 -71 -66 62 -106 0
-41 63 23 21 0
36 -13 -20 0
-34 52 -99 92 -96 -15 0
-9 -100 43 -60 40 58 0
-88 -95 107 -38 48 0
98 57 0
-50 64 -5 53 -9 0
107 73 0
-36 -69 -108 -34 -38 -74 0
47 22 21 108 0
73 -80 -78 0
52 -96 69 -74 90 64 0
-42 -56 -95 8 0
111 0
